c generated by sgen
p cnf 93 196
-2 -3 -4 0
-1 -3 -4 0
-1 -2 -4 0
-1 -2 -3 0
-6 -7 -8 0
-5 -7 -8 0
-5 -6 -8 0
-5 -6 -7 0
-10 -11 -12 0
-9 -11 -12 0
-9 -10 -12 0
-9 -10 -11 0
-14 -15 -16 0
-13 -15 -16 0
-13 -14 -16 0
-13 -14 -15 0
-18 -19 -20 0
-17 -19 -20 0
-17 -18 -20 0
-17 -18 -19 0
-22 -23 -24 0
-21 -23 -24 0
-21 -22 -24 0
-21 -22 -23 0
-26 -27 -28 0
-25 -27 -28 0
-25 -26 -28 0
-25 -26 -27 0
-30 -31 -32 0
-29 -31 -32 0
-29 -30 -32 0
-29 -30 -31 0
-34 -35 -36 0
-33 -35 -36 0
-33 -34 -36 0
-33 -34 -35 0
-38 -39 -40 0
-37 -39 -40 0
-37 -38 -40 0
-37 -38 -39 0
-42 -43 -44 0
-41 -43 -44 0
-41 -42 -44 0
-41 -42 -43 0
-46 -47 -48 0
-45 -47 -48 0
-45 -46 -48 0
-45 -46 -47 0
-50 -51 -52 0
-49 -51 -52 0
-49 -50 -52 0
-49 -50 -51 0
-54 -55 -56 0
-53 -55 -56 0
-53 -54 -56 0
-53 -54 -55 0
-58 -59 -60 0
-57 -59 -60 0
-57 -58 -60 0
-57 -58 -59 0
-62 -63 -64 0
-61 -63 -64 0
-61 -62 -64 0
-61 -62 -63 0
-66 -67 -68 0
-65 -67 -68 0
-65 -66 -68 0
-65 -66 -67 0
-70 -71 -72 0
-69 -71 -72 0
-69 -70 -72 0
-69 -70 -71 0
-74 -75 -76 0
-73 -75 -76 0
-73 -74 -76 0
-73 -74 -75 0
-78 -79 -80 0
-77 -79 -80 0
-77 -78 -80 0
-77 -78 -79 0
-82 -83 -84 0
-81 -83 -84 0
-81 -82 -84 0
-81 -82 -83 0
-86 -87 -88 0
-85 -87 -88 0
-85 -86 -88 0
-85 -86 -87 0
-89 -90 -91 0
-89 -90 -92 0
-89 -90 -93 0
-89 -91 -92 0
-89 -91 -93 0
-89 -92 -93 0
-90 -91 -92 0
-90 -91 -93 0
-90 -92 -93 0
-91 -92 -93 0
86 22 92 0
34 22 92 0
34 86 92 0
34 86 22 0
50 72 90 0
82 72 90 0
82 50 90 0
82 50 72 0
52 6 85 0
27 6 85 0
27 52 85 0
27 52 6 0
68 69 29 0
2 69 29 0
2 68 29 0
2 68 69 0
33 38 54 0
31 38 54 0
31 33 54 0
31 33 38 0
59 14 32 0
51 14 32 0
51 59 32 0
51 59 14 0
16 25 83 0
40 25 83 0
40 16 83 0
40 16 25 0
74 5 58 0
78 5 58 0
78 74 58 0
78 74 5 0
35 70 12 0
26 70 12 0
26 35 12 0
26 35 70 0
13 8 24 0
67 8 24 0
67 13 24 0
67 13 8 0
88 57 62 0
84 57 62 0
84 88 62 0
84 88 57 0
23 75 43 0
30 75 43 0
30 23 43 0
30 23 75 0
42 64 66 0
80 64 66 0
80 42 66 0
80 42 64 0
20 47 71 0
21 47 71 0
21 20 71 0
21 20 47 0
56 89 60 0
41 89 60 0
41 56 60 0
41 56 89 0
28 53 65 0
17 53 65 0
17 28 65 0
17 28 53 0
63 36 18 0
4 36 18 0
4 63 18 0
4 63 36 0
19 9 79 0
91 9 79 0
91 19 79 0
91 19 9 0
7 37 93 0
61 37 93 0
61 7 93 0
61 7 37 0
73 11 46 0
49 11 46 0
49 73 46 0
49 73 11 0
39 44 3 0
48 44 3 0
48 39 3 0
48 39 44 0
45 55 81 0
77 55 81 0
77 45 81 0
77 45 55 0
1 15 87 0
1 15 76 0
1 15 10 0
1 87 76 0
1 87 10 0
1 76 10 0
15 87 76 0
15 87 10 0
15 76 10 0
87 76 10 0
